65 64 51 76 19 49 22 20 84 85 63 56 66 52 86 74 59 75 97 58 77 25 24 83 
96 71 34 31 29 27 26 28 33 89 18 48 21 23 57 99 53 55 
54 72 39 36 43 1 45 3 5 8 46 4 70 
90 82 11 15 87 9 10 13 16 17 47 14 12 98 
91 92 95 62 50 32 30 67 93 94 80 
69 88 60 78 73 79 7 6 2 100 
81 42 44 41 38 40 35 37 61 68 
